c   #vars: 46   #clauses: 193   #literals: 570
c 
p cnf 46 193
14 -29 36 37 0
3 4 7 19 20 44 0
-3 -4 0
-5 -6 0
2 -34 38 39 0
-8 -9 0
-10 -11 0
-12 -13 0
15 -30 34 35 0
-15 16 42 43 0
-17 -18 0
-5 12 13 23 0
3 4 21 22 0
-19 -20 0
2 34 35 -38 0
-21 -22 0
1 -26 36 37 0
-24 -25 0
-26 -27 0
-28 -29 0
-30 -31 0
-12 14 23 -29 0
12 13 26 27 0
2 -17 34 35 0
-32 -33 0
-34 -35 0
-36 -37 0
7 -21 44 -45 0
-3 7 44 -45 0
-38 -39 0
7 19 20 44 -45 0
-40 -41 0
-42 -43 0
30 31 45 46 0
-45 -46 0
8 9 45 46 0
14 -23 36 37 0
-1 -27 0
5 6 32 33 0
14 28 29 -37 0
-1 -37 0
14 -23 28 29 0
-1 -43 0
3 4 -21 44 0
-2 -18 0
15 16 -34 -43 0
2 17 18 -38 0
7 21 22 44 45 46 0
-2 -35 0
3 4 30 31 0
7 19 20 21 22 44 0
-2 -39 0
5 6 -14 23 0
-3 -21 0
-4 -22 0
-3 -24 0
-4 -25 0
5 6 40 41 0
-3 -30 0
-4 -31 0
7 19 20 -45 0
28 29 45 46 0
15 -16 30 31 0
-3 -4 -14 23 0
-4 -44 0
1 -36 42 43 0
-6 -23 0
8 9 26 27 0
-5 -30 0
-6 -31 0
8 9 21 22 0
-5 -32 0
-6 -33 0
30 31 40 41 0
-5 -38 0
-6 -39 0
-5 -40 0
-6 -41 0
2 -17 38 39 0
-7 -20 0
19 20 32 33 0
7 -19 45 46 0
-3 21 22 44 0
-7 -44 0
17 18 45 46 0
3 4 7 44 45 46 0
-7 -46 0
5 6 38 39 0
-8 -21 0
-9 -22 0
17 18 34 35 0
-8 -26 0
-9 -27 0
3 4 24 25 0
-8 -28 0
-9 -29 0
24 25 42 43 0
-8 -32 0
-9 -33 0
12 13 24 25 0
-8 -45 0
-9 -46 0
19 20 38 39 0
-10 -16 0
28 29 36 37 0
-10 -34 0
-11 -35 0
15 16 -30 -43 0
-10 -36 0
-11 -37 0
-10 -38 0
-11 -39 0
7 -19 44 45 46 0
1 -26 42 43 0
-13 -23 0
30 31 42 43 0
-12 -24 0
-13 -25 0
5 6 -12 23 0
-12 -26 0
-13 -27 0
12 13 32 33 0
-12 -32 0
-13 -33 0
19 20 40 41 0
1 26 27 -42 0
15 -16 34 35 0
24 25 38 39 0
-14 -28 0
10 11 36 37 0
-14 -36 0
-11 15 16 -34 0
-11 16 42 43 0
10 11 38 39 0
10 11 16 -43 0
-15 -31 0
-5 14 23 -29 0
10 11 -15 16 0
-15 -35 0
-3 -4 -5 23 0
-16 -42 0
1 36 37 -42 0
-17 -34 0
-18 -35 0
-11 15 16 -30 0
-17 -36 0
-18 -37 0
-17 -45 0
-18 -46 0
-3 7 -19 44 0
2 17 18 -34 0
-19 -32 0
-20 -33 0
-19 -38 0
-20 -39 0
12 13 -14 23 0
-19 -40 0
-20 -41 0
17 18 36 37 0
-3 -4 -12 23 0
-22 -44 0
-12 14 23 -37 0
7 -19 -21 44 0
15 30 31 -34 0
8 9 28 29 0
-24 -32 0
-25 -33 0
28 29 40 41 0
-24 -38 0
-25 -39 0
1 26 27 -36 0
-24 -42 0
-25 -43 0
10 11 34 35 0
-26 -38 0
-27 -39 0
24 25 32 33 0
-28 -36 0
-29 -37 0
-5 14 23 -37 0
-28 -40 0
-29 -41 0
8 9 32 33 0
-28 -45 0
-29 -46 0
26 27 38 39 0
-30 -40 0
-31 -41 0
-30 -42 0
-31 -43 0
5 6 30 31 0
-30 -45 0
-31 -46 0
